; PUSH cw_2 PUSH 0x00 DUP4 ADD SLOAD SWAP1 => DUP2 SLOAD PUSH cw_2
(set-option :produce-proofs true)
; 
(set-info :status unknown)
(declare-fun storage_t ((_ BitVec 256) (_ BitVec 256) (_ BitVec 256) (_ BitVec 256) Int (_ BitVec 256)) (_ BitVec 256))
(declare-fun w_2 () (_ BitVec 256))
(declare-fun storage_s ((_ BitVec 256) (_ BitVec 256) (_ BitVec 256) (_ BitVec 256) Int (_ BitVec 256)) (_ BitVec 256))
(declare-fun exc_halt_t (Int) Bool)
(declare-fun exc_halt_s (Int) Bool)
(declare-fun stack_t ((_ BitVec 256) (_ BitVec 256) (_ BitVec 256) (_ BitVec 256) Int (_ BitVec 6)) (_ BitVec 256))
(declare-fun stack_s ((_ BitVec 256) (_ BitVec 256) (_ BitVec 256) (_ BitVec 256) Int (_ BitVec 6)) (_ BitVec 256))
(declare-fun sc_t (Int) (_ BitVec 6))
(declare-fun sc_s (Int) (_ BitVec 6))
(declare-fun used_gas_t ((_ BitVec 256) (_ BitVec 256) (_ BitVec 256) (_ BitVec 256) Int) Int)
(declare-fun used_gas_s ((_ BitVec 256) (_ BitVec 256) (_ BitVec 256) (_ BitVec 256) Int) Int)
(assert
 (exists ((x_0 (_ BitVec 256)) (x_1 (_ BitVec 256)) (x_SLOAD_0 (_ BitVec 256)) )(let (($x6992 (forall ((w (_ BitVec 256)) )(let ((?x6082 (storage_t x_0 x_1 x_SLOAD_0 w_2 3 w)))
 (let ((?x5413 (storage_s x_0 x_1 x_SLOAD_0 w_2 6 w)))
 (= ?x5413 ?x6082))))
 ))
 (let (($x10336 (exc_halt_t 3)))
 (let (($x772 (exc_halt_s 6)))
 (let (($x2647 (= $x772 $x10336)))
 (let (($x5331 (forall ((n (_ BitVec 6)) )(let ((?x6064 (stack_t x_0 x_1 x_SLOAD_0 w_2 3 n)))
 (let ((?x6994 (stack_s x_0 x_1 x_SLOAD_0 w_2 6 n)))
 (let (($x6041 (= ?x6994 ?x6064)))
 (or (bvsle (sc_t 3) n) $x6041)))))
 ))
 (let ((?x2012 (sc_t 3)))
 (let ((?x926 (sc_s 6)))
 (let (($x7824 (= ?x926 ?x2012)))
 (let ((?x6439 (used_gas_t x_0 x_1 x_SLOAD_0 w_2 0)))
 (let ((?x6457 (used_gas_s x_0 x_1 x_SLOAD_0 w_2 0)))
 (let (($x6443 (= ?x6457 ?x6439)))
 (let (($x6015 (forall ((w (_ BitVec 256)) )(let ((?x10520 (storage_t x_0 x_1 x_SLOAD_0 w_2 0 w)))
 (let ((?x5507 (storage_s x_0 x_1 x_SLOAD_0 w_2 0 w)))
 (= ?x5507 ?x10520))))
 ))
 (let (($x56 (exc_halt_t 0)))
 (let (($x57 (exc_halt_s 0)))
 (let (($x58 (= $x57 $x56)))
 (let (($x5423 (forall ((n (_ BitVec 6)) )(let ((?x6000 (stack_t x_0 x_1 x_SLOAD_0 w_2 0 n)))
 (let ((?x6471 (stack_s x_0 x_1 x_SLOAD_0 w_2 0 n)))
 (let (($x3901 (= ?x6471 ?x6000)))
 (or $x3901 (bvsle (sc_t 0) n))))))
 ))
 (let ((?x63 (sc_t 0)))
 (let ((?x72 (sc_s 0)))
 (let (($x73 (= ?x72 ?x63)))
 (let (($x903 (exc_halt_t 2)))
 (let (($x5396 (or $x903 (not (= ((_ extract 6 6) (bvadd (_ bv1 7) (concat (_ bv0 1) (sc_t 2)))) (_ bv0 1))))))
 (let (($x7564 (forall ((w (_ BitVec 256)) )(let ((?x5477 (storage_t x_0 x_1 x_SLOAD_0 w_2 2 w)))
 (let ((?x6082 (storage_t x_0 x_1 x_SLOAD_0 w_2 3 w)))
 (= ?x6082 ?x5477))))
 ))
 (let (($x5489 (forall ((n (_ BitVec 6)) )(let ((?x6079 (stack_t x_0 x_1 x_SLOAD_0 w_2 2 n)))
 (let ((?x6064 (stack_t x_0 x_1 x_SLOAD_0 w_2 3 n)))
 (or (= ?x6064 ?x6079) (bvsle (sc_t 2) n)))))
 ))
 (let (($x5506 (= (used_gas_t x_0 x_1 x_SLOAD_0 w_2 3) (+ 3 (used_gas_t x_0 x_1 x_SLOAD_0 w_2 2)))))
 (let (($x5475 (= $x903 (or (exc_halt_t 1) (not (bvsle (_ bv0 6) (bvadd (_ bv63 6) (sc_t 1))))))))
 (let (($x5525 (forall ((w (_ BitVec 256)) )(let ((?x3673 (storage_t x_0 x_1 x_SLOAD_0 w_2 1 w)))
 (let ((?x5477 (storage_t x_0 x_1 x_SLOAD_0 w_2 2 w)))
 (= ?x5477 ?x3673))))
 ))
 (let (($x5181 (forall ((n (_ BitVec 6)) )(let ((?x7025 (stack_t x_0 x_1 x_SLOAD_0 w_2 1 n)))
 (let ((?x6079 (stack_t x_0 x_1 x_SLOAD_0 w_2 2 n)))
 (or (bvsle (bvadd (_ bv63 6) (sc_t 1)) n) (= ?x6079 ?x7025)))))
 ))
 (let ((?x306 (used_gas_t x_0 x_1 x_SLOAD_0 w_2 2)))
 (let ((?x4023 (sc_t 1)))
 (let ((?x5476 (bvadd (_ bv63 6) ?x4023)))
 (let ((?x5394 (stack_t x_0 x_1 x_SLOAD_0 w_2 1 ?x5476)))
 (let (($x7217 (= (stack_t x_0 x_1 x_SLOAD_0 w_2 2 (bvadd (_ bv63 6) (sc_t 2))) (storage_t x_0 x_1 x_SLOAD_0 w_2 1 ?x5394))))
 (let (($x7479 (or $x56 (not (= ((_ extract 6 6) (bvadd (_ bv1 7) (concat (_ bv0 1) ?x63))) (_ bv0 1))) (not (bvsle (_ bv0 6) (bvadd (_ bv62 6) ?x63))))))
 (let (($x1920 (exc_halt_t 1)))
 (let (($x5688 (forall ((w (_ BitVec 256)) )(let ((?x10520 (storage_t x_0 x_1 x_SLOAD_0 w_2 0 w)))
 (let ((?x3673 (storage_t x_0 x_1 x_SLOAD_0 w_2 1 w)))
 (= ?x3673 ?x10520))))
 ))
 (let (($x7686 (forall ((n (_ BitVec 6)) )(let ((?x6000 (stack_t x_0 x_1 x_SLOAD_0 w_2 0 n)))
 (let ((?x7025 (stack_t x_0 x_1 x_SLOAD_0 w_2 1 n)))
 (or (= ?x7025 ?x6000) (bvsle (bvadd (_ bv62 6) (sc_t 0)) n)))))
 ))
 (let (($x5256 (= (stack_t x_0 x_1 x_SLOAD_0 w_2 1 (bvadd (_ bv63 6) ?x63)) (stack_t x_0 x_1 x_SLOAD_0 w_2 0 (bvadd (_ bv63 6) ?x63)))))
 (let ((?x5384 (bvadd (_ bv62 6) ?x63)))
 (let ((?x5385 (stack_t x_0 x_1 x_SLOAD_0 w_2 0 ?x5384)))
 (let (($x5448 (= $x772 (or (exc_halt_s 5) (not (bvsle (_ bv0 6) (bvadd (_ bv62 6) (sc_s 5))))))))
 (let (($x5415 (forall ((w (_ BitVec 256)) )(let ((?x7067 (storage_s x_0 x_1 x_SLOAD_0 w_2 5 w)))
 (let ((?x5413 (storage_s x_0 x_1 x_SLOAD_0 w_2 6 w)))
 (= ?x5413 ?x7067))))
 ))
 (let (($x5414 (forall ((n (_ BitVec 6)) )(let ((?x7099 (stack_s x_0 x_1 x_SLOAD_0 w_2 5 n)))
 (let ((?x6994 (stack_s x_0 x_1 x_SLOAD_0 w_2 6 n)))
 (or (= ?x6994 ?x7099) (bvsle (bvadd (_ bv62 6) (sc_s 5)) n)))))
 ))
 (let (($x5538 (= (used_gas_s x_0 x_1 x_SLOAD_0 w_2 6) (+ 3 (used_gas_s x_0 x_1 x_SLOAD_0 w_2 5)))))
 (let ((?x5230 (stack_s x_0 x_1 x_SLOAD_0 w_2 5 (bvadd (_ bv63 6) (sc_s 5)))))
 (let (($x5169 (= (stack_s x_0 x_1 x_SLOAD_0 w_2 6 (bvadd (_ bv63 6) ?x926)) (stack_s x_0 x_1 x_SLOAD_0 w_2 5 (bvadd (_ bv62 6) (sc_s 5))))))
 (let (($x3979 (exc_halt_s 5)))
 (let (($x5501 (= $x3979 (or (exc_halt_s 4) (not (bvsle (_ bv0 6) (bvadd (_ bv63 6) (sc_s 4))))))))
 (let (($x5551 (forall ((w (_ BitVec 256)) )(let ((?x7049 (storage_s x_0 x_1 x_SLOAD_0 w_2 4 w)))
 (let ((?x7067 (storage_s x_0 x_1 x_SLOAD_0 w_2 5 w)))
 (= ?x7067 ?x7049))))
 ))
 (let (($x5511 (forall ((n (_ BitVec 6)) )(let ((?x586 (stack_s x_0 x_1 x_SLOAD_0 w_2 4 n)))
 (let ((?x7099 (stack_s x_0 x_1 x_SLOAD_0 w_2 5 n)))
 (or (= ?x7099 ?x586) (bvsle (bvadd (_ bv63 6) (sc_s 4)) n)))))
 ))
 (let ((?x7100 (used_gas_s x_0 x_1 x_SLOAD_0 w_2 5)))
 (let ((?x4305 (sc_s 4)))
 (let ((?x1295 (bvadd (_ bv63 6) ?x4305)))
 (let ((?x5375 (stack_s x_0 x_1 x_SLOAD_0 w_2 4 ?x1295)))
 (let (($x64 (exc_halt_s 4)))
 (let (($x5426 (= $x64 (or (exc_halt_s 3) (not (bvsle (_ bv0 6) (bvadd (_ bv62 6) (sc_s 3))))))))
 (let (($x5458 (forall ((w (_ BitVec 256)) )(let ((?x10423 (storage_s x_0 x_1 x_SLOAD_0 w_2 3 w)))
 (let ((?x7049 (storage_s x_0 x_1 x_SLOAD_0 w_2 4 w)))
 (= ?x7049 ?x10423))))
 ))
 (let (($x5460 (forall ((n (_ BitVec 6)) )(let ((?x7122 (stack_s x_0 x_1 x_SLOAD_0 w_2 3 n)))
 (let ((?x586 (stack_s x_0 x_1 x_SLOAD_0 w_2 4 n)))
 (or (bvsle (bvadd (_ bv62 6) (sc_s 3)) n) (= ?x586 ?x7122)))))
 ))
 (let ((?x9380 (used_gas_s x_0 x_1 x_SLOAD_0 w_2 4)))
 (let ((?x275 (sc_s 3)))
 (let ((?x7220 (bvadd (_ bv63 6) ?x275)))
 (let ((?x7075 (stack_s x_0 x_1 x_SLOAD_0 w_2 3 ?x7220)))
 (let (($x5367 (= ?x5375 (bvadd ?x7075 (stack_s x_0 x_1 x_SLOAD_0 w_2 3 (bvadd (_ bv62 6) ?x275))))))
 (let (($x247 (exc_halt_s 2)))
 (let (($x5348 (or $x247 (not (bvsle (_ bv0 6) (bvadd (_ bv60 6) (sc_s 2)))) (not (= ((_ extract 6 6) (bvadd (_ bv1 7) (concat (_ bv0 1) (sc_s 2)))) (_ bv0 1))))))
 (let (($x292 (exc_halt_s 3)))
 (let (($x5295 (forall ((w (_ BitVec 256)) )(let ((?x7124 (storage_s x_0 x_1 x_SLOAD_0 w_2 2 w)))
 (let ((?x10423 (storage_s x_0 x_1 x_SLOAD_0 w_2 3 w)))
 (= ?x10423 ?x7124))))
 ))
 (let (($x5307 (forall ((n (_ BitVec 6)) )(let ((?x7182 (stack_s x_0 x_1 x_SLOAD_0 w_2 2 n)))
 (let ((?x7122 (stack_s x_0 x_1 x_SLOAD_0 w_2 3 n)))
 (or (bvsle (bvadd (_ bv60 6) (sc_s 2)) n) (= ?x7122 ?x7182)))))
 ))
 (let ((?x5457 (used_gas_s x_0 x_1 x_SLOAD_0 w_2 3)))
 (let (($x5298 (= (stack_s x_0 x_1 x_SLOAD_0 w_2 3 (bvadd (_ bv63 6) (sc_s 2))) (stack_s x_0 x_1 x_SLOAD_0 w_2 2 (bvadd (_ bv63 6) (sc_s 2))))))
 (let (($x5153 (= (stack_s x_0 x_1 x_SLOAD_0 w_2 3 (bvadd (_ bv62 6) (sc_s 2))) (stack_s x_0 x_1 x_SLOAD_0 w_2 2 (bvadd (_ bv62 6) (sc_s 2))))))
 (let (($x5320 (= (stack_s x_0 x_1 x_SLOAD_0 w_2 3 (bvadd (_ bv61 6) (sc_s 2))) (stack_s x_0 x_1 x_SLOAD_0 w_2 2 (bvadd (_ bv61 6) (sc_s 2))))))
 (let ((?x218 (sc_s 2)))
 (let ((?x7588 (bvadd (_ bv60 6) ?x218)))
 (let ((?x34 (stack_s x_0 x_1 x_SLOAD_0 w_2 2 ?x7588)))
 (let (($x189 (exc_halt_s 1)))
 (let (($x7059 (or $x189 (not (= ((_ extract 6 6) (bvadd (_ bv1 7) (concat (_ bv0 1) (sc_s 1)))) (_ bv0 1))))))
 (let (($x5456 (forall ((w (_ BitVec 256)) )(let ((?x6503 (storage_s x_0 x_1 x_SLOAD_0 w_2 1 w)))
 (let ((?x7124 (storage_s x_0 x_1 x_SLOAD_0 w_2 2 w)))
 (= ?x7124 ?x6503))))
 ))
 (let (($x7506 (forall ((n (_ BitVec 6)) )(let ((?x7202 (stack_s x_0 x_1 x_SLOAD_0 w_2 1 n)))
 (let ((?x7182 (stack_s x_0 x_1 x_SLOAD_0 w_2 2 n)))
 (or (= ?x7182 ?x7202) (bvsle (sc_s 1) n)))))
 ))
 (let ((?x6873 (used_gas_s x_0 x_1 x_SLOAD_0 w_2 2)))
 (let (($x7324 (= $x189 (or $x57 (not (= ((_ extract 6 6) (bvadd (_ bv1 7) (concat (_ bv0 1) ?x72))) (_ bv0 1)))))))
 (let (($x7660 (forall ((w (_ BitVec 256)) )(let ((?x5507 (storage_s x_0 x_1 x_SLOAD_0 w_2 0 w)))
 (let ((?x6503 (storage_s x_0 x_1 x_SLOAD_0 w_2 1 w)))
 (= ?x6503 ?x5507))))
 ))
 (let (($x7659 (forall ((n (_ BitVec 6)) )(let ((?x6471 (stack_s x_0 x_1 x_SLOAD_0 w_2 0 n)))
 (let ((?x7202 (stack_s x_0 x_1 x_SLOAD_0 w_2 1 n)))
 (or (= ?x7202 ?x6471) (bvsle (sc_s 0) n)))))
 ))
 (let (($x7366 (forall ((w (_ BitVec 256)) )(let (($x8130 (= w (stack_s x_0 x_1 x_SLOAD_0 w_2 4 (bvadd (_ bv63 6) (sc_s 4))))))
 (let ((?x5507 (storage_s x_0 x_1 x_SLOAD_0 w_2 0 w)))
 (= ?x5507 (ite $x8130 x_SLOAD_0 (_ bv0 256))))))
 ))
 (let (($x6665 (= ?x6457 0)))
 (let (($x7262 (= (stack_s x_0 x_1 x_SLOAD_0 w_2 0 (_ bv1 6)) x_1)))
 (let (($x7278 (= (stack_s x_0 x_1 x_SLOAD_0 w_2 0 (_ bv0 6)) x_0)))
 (let (($x7283 (= ?x72 (_ bv2 6))))
 (and $x7283 $x7278 $x7262 (not $x57) $x6665 $x7366 (= (stack_s x_0 x_1 x_SLOAD_0 w_2 1 ?x72) w_2) (= (used_gas_s x_0 x_1 x_SLOAD_0 w_2 1) (+ 3 ?x6457)) (= (sc_s 1) (bvadd (_ bv1 6) ?x72)) $x7659 $x7660 $x7324 (= (stack_s x_0 x_1 x_SLOAD_0 w_2 2 (sc_s 1)) (_ bv0 256)) (= ?x6873 (+ 3 (used_gas_s x_0 x_1 x_SLOAD_0 w_2 1))) (= ?x218 (bvadd (_ bv1 6) (sc_s 1))) $x7506 $x5456 (= $x247 $x7059) (= ?x7075 ?x34) (= (stack_s x_0 x_1 x_SLOAD_0 w_2 3 ?x7588) ?x34) $x5320 $x5153 $x5298 (= ?x5457 (+ 3 ?x6873)) (= ?x275 (bvadd (_ bv1 6) ?x218)) $x5307 $x5295 (= $x292 $x5348) $x5367 (= ?x9380 (+ 3 ?x5457)) (= ?x4305 ?x7220) $x5460 $x5458 $x5426 (= ?x5230 (storage_s x_0 x_1 x_SLOAD_0 w_2 4 ?x5375)) (= ?x7100 (+ 200 ?x9380)) (= (sc_s 5) ?x4305) $x5511 $x5551 $x5501 $x5169 (= (stack_s x_0 x_1 x_SLOAD_0 w_2 6 (bvadd (_ bv62 6) ?x926)) ?x5230) $x5538 (= ?x926 (sc_s 5)) $x5414 $x5415 $x5448 (= ?x5394 ?x5385) (= (stack_t x_0 x_1 x_SLOAD_0 w_2 1 ?x5384) ?x5385) $x5256 (= (used_gas_t x_0 x_1 x_SLOAD_0 w_2 1) (+ 3 ?x6439)) (= ?x4023 (bvadd (_ bv1 6) ?x63)) $x7686 $x5688 (= $x1920 $x7479) $x7217 (= ?x306 (+ 200 (used_gas_t x_0 x_1 x_SLOAD_0 w_2 1))) (= (sc_t 2) ?x4023) $x5181 $x5525 $x5475 (= (stack_t x_0 x_1 x_SLOAD_0 w_2 3 (sc_t 2)) w_2) $x5506 (= ?x2012 (bvadd (_ bv1 6) (sc_t 2))) $x5489 $x7564 (= $x10336 $x5396) $x73 $x5423 $x58 $x6015 $x6443 (not (and $x7824 $x5331 $x2647 $x6992)))))))))))))))))))))))))))))))))))))))))))))))))))))))))))))))))))))))))))))))))))))))))))
 )
(check-sat)
(get-proof)
